problems/csplib-prob056/sonet-models/compact/O2/lingeling/model_1_1-s1ring03-solution000001.eprime-solution
language ESSENCE' 1.0

letting network_ExplicitWithFlagsR2_Flags be [1, 2, 1, 0; int(1..4)]
letting network_ExplicitWithFlagsR2_Values_Occurrence be
        [[false, false, true, true, true, true, false; int(1..7)],
         [true, false, true, false, false, false, false; int(1..7)],
         [true, true, false, true, false, false, true; int(1..7)],
         [false, false, false, false, false, false, false; int(1..7)]; int(1..4)]
