problems/csplib-prob056/sonet-models/noch/O2/minion/model_1_1-s1ring03-solution000001.solution
language Essence 1.3

letting network be mset({}, {1, 2, 3, 5}, {1, 3, 4, 7}, {4, 6})
$ Here is a simple "visualisation" for the value above.
$ 
$ 1 2 3 5
$ 1 3 4 7
$ 4 6

